p edge 25 29
e 0 1
e 0 3
e 0 8
e 0 13
e 0 18
e 2 7
e 2 10
e 5 6
e 6 23
e 7 9
e 7 15
e 7 17
e 7 18
e 7 20
e 8 21
e 9 12
e 9 22
e 10 18
e 10 19
e 11 15
e 11 21
e 12 14
e 12 16
e 12 24
e 14 19
e 14 23
e 16 24
e 18 22
e 21 22
